Version identifier: 22.1.1.0 | 2022-11-27 | 9160aff4d
Legacy callback                                  pi
Tried aggregator 2 times.
MIQCP Presolve eliminated 8566 rows and 1367 columns.
MIQCP Presolve modified 25 coefficients.
Aggregator did 1 substitutions.
Reduced MIQCP has 20674 rows, 20526 columns, and 68365 nonzeros.
Reduced MIQCP has 298 binaries, 47 generals, 0 SOSs, and 0 indicators.
Reduced MIQCP has 3941 quadratic constraints.
Presolve time = 0.81 sec. (80.14 ticks)
Probing fixed 0 vars, tightened 12651 bounds.
Probing changed sense of 6 constraints.
Probing time = 0.31 sec. (105.64 ticks)
Cover probing fixed 0 vars, tightened 1386 bounds.
Clique table members: 2598.
MIP emphasis: balance optimality and feasibility.
MIP search method: dynamic search.
Parallel mode: deterministic, using up to 12 threads.
Root relaxation solution time = 4.58 sec. (4932.20 ticks)

        Nodes                                         Cuts/
   Node  Left     Objective  IInf  Best Integer    Best Bound    ItCnt     Gap

      0     0        4.7100     0                      0.0000    17931         
      0     0        4.7100   156                      4.7100    17931         
      0     2        4.7100    32                      4.7100    17931         
Elapsed time = 9.66 sec. (8739.67 ticks, tree = 0.02 MB, solutions = 0)
      2     4       14.6000    23                      4.7100    17940         
      4     4       14.6000   130                      4.7100    19214         
      6     8       14.6000   107                      4.7100    19832         
      9    10       34.5200    65                      4.7100    20027         
     15    13       34.5200    93                      4.7100    20393         
     18     9       14.6000   154                      4.7100    20564         
     21    16       14.6000    62                      4.7100    21896         
     27    23    infeasible                            4.7100    27937         
     30    22       67.1300    75                      4.7100    26926         
     87    25       33.2700   103                      4.7100    31738         
Elapsed time = 18.77 sec. (13203.66 ticks, tree = 0.06 MB, solutions = 0)
    170    35    infeasible                            4.7100    51242         
    226    23    infeasible                            4.7100    59213         
    250    28      163.9600     5                      4.7100    61506         
*   281    36      integral     0      946.6601        4.7100    45634   99.50%
    299    49        4.7100   117      946.6601        4.7100    67448   99.50%
    396    57    infeasible            946.6601        4.7100    77396   99.50%
    500    82       14.6000   101      946.6601        4.7100    82877   99.50%
*   546    32      integral     0      935.4797        4.7100    64176   99.50%
    553    74       14.6000   107      935.4797        4.7100    90330   99.50%
    638    63    infeasible            935.4797        4.7100    97449   99.50%
*   678    40      integral     0      931.9700        4.7100   104856   99.49%
    690    74  -1.00000e+75     0      931.9700        4.7100    88093   99.49%
    690    74        cutoff            931.9700        4.7100    88093   99.49%
Elapsed time = 106.48 sec. (26069.95 ticks, tree = 2.44 MB, solutions = 5)
*   698    58      integral     0      931.1701        4.7100    95672   99.49%
    698    58        cutoff            931.1701        4.7100    95672   99.49%
*   706    28      integral     0      931.1698        4.7100   106350   99.49%
    708    44   5.17611e+08     0      931.1698        4.7100    47429   99.49%
    731    16      280.8100    16      931.1698        4.7100   111037   99.49%
    752    21    infeasible            931.1698        4.7100    56144   99.49%
    766    63    infeasible            931.1698        4.7100    80053   99.49%

Clique cuts applied:  1
Cover cuts applied:  2
Implied bound cuts applied:  68
Cone linearizations applied:  126

Root node processing (before b&c):
  Real time             =    9.26 sec. (8570.60 ticks)
Parallel b&c, 12 threads:
  Real time             =  853.52 sec. (151916.89 ticks)
  Sync time (average)   =  502.98 sec.
  Wait time (average)   =    0.00 sec.
                          ------------
Total (root+branch&cut) =  862.78 sec. (160487.49 ticks)
